(set-logic HORN)
(declare-fun inv ((_ BitVec 8) (_ BitVec 8) ) Bool)
(assert (forall ((x (_ BitVec 8)) (y (_ BitVec 8))) 
       (=> ( and ( bvsle x (_ bv5 8) ) ( bvsge x (_ bv4 8) ) ( bvsle y (_ bv5 8) ) ( bvsge y (_ bv4 8) ) ) (inv x y))))
(assert (forall ((x (_ BitVec 8)) (y (_ BitVec 8)) (x! (_ BitVec 8)) (y! (_ BitVec 8))) 
       (=> (and (inv x y) ( or ( and ( = x! ( bvsub x (_ bv1 8) ) ) ( = y! y ) ( bvsge x (_ bv0 8) ) ( bvsge y (_ bv0 8) ) ) ( and ( = x! x ) ( = y! ( bvsub y (_ bv1 8) ) ) ( bvslt x (_ bv0 8) ) ( bvsge y (_ bv0 8) ) ) ( and ( = x! ( bvadd x (_ bv1 8) ) ) ( = y! ( bvsub y (_ bv1 8) ) ) ( bvslt y (_ bv0 8) ) ) )) (inv x! y!))))
(assert (forall ((x (_ BitVec 8)) (y (_ BitVec 8))) 
       (=> (inv x y) ( and ( bvsle y (_ bv5 8) ) ))))
(check-sat)
